70
1 0 4
2 0 4
2 1 3
3 0 4
4 0 1
4 1 3
5 2 1
5 3 3
6 2 3
6 4 4
7 3 3
7 4 4
7 6 3
8 1 2
8 2 3
8 6 2
9 0 4
9 2 2
9 3 3
9 4 4
9 8 1
10 1 1
10 3 2
10 4 1
10 5 2
10 9 4
11 1 1
11 3 4
11 4 2
11 5 4
11 6 3
11 10 4
12 1 3
12 2 3
12 6 2
12 7 2
12 8 1
12 9 2
12 10 3
12 11 2
13 1 4
13 4 3
13 6 1
13 7 1
13 10 3
13 11 4
13 12 2
14 0 1
14 1 4
14 2 1
14 5 3
14 6 1
14 7 1
15 0 2
15 2 2
15 3 3
15 4 1
15 7 3
15 9 2
15 10 2
15 11 4
15 12 2
15 13 2
15 14 2
16 0 4
16 2 2
16 3 1
16 4 1
16 5 2
16 8 4
16 14 2
17 0 4
17 5 3
17 8 3
17 12 4
17 13 3
17 14 3
17 15 3
17 16 1
18 5 3
18 6 2
18 7 3
18 13 4
18 15 3
18 17 2
19 0 3
19 1 4
19 4 2
19 6 3
19 8 2
19 9 4
19 10 1
19 11 3
19 12 1
19 13 1
19 16 1
20 2 4
20 3 4
20 4 1
20 6 4
20 7 2
20 8 3
20 9 2
20 12 3
20 16 3
20 17 1
20 19 1
21 0 4
21 2 1
21 8 4
21 13 4
21 15 4
21 17 1
21 19 3
22 2 3
22 3 1
22 5 4
22 6 3
22 7 4
22 8 2
22 10 3
22 15 1
22 17 2
22 18 4
22 21 4
23 1 3
23 3 2
23 5 2
23 6 2
23 7 3
23 8 4
23 9 3
23 14 2
23 16 3
23 19 4
24 1 1
24 2 2
24 7 3
24 8 1
24 9 1
24 13 2
24 14 4
24 15 4
24 16 3
24 18 3
24 22 1
25 0 4
25 1 4
25 3 4
25 5 2
25 6 4
25 7 1
25 8 1
25 9 2
25 10 3
25 12 4
25 13 1
25 14 1
25 15 4
25 18 4
25 19 3
25 21 1
25 22 1
25 23 2
25 24 3
26 2 4
26 4 3
26 7 4
26 11 4
26 14 3
26 15 2
26 16 3
26 18 4
26 20 2
26 21 1
26 22 1
26 25 1
27 0 4
27 2 4
27 4 3
27 5 3
27 8 2
27 9 3
27 10 3
27 11 3
27 18 4
27 19 3
27 20 4
27 21 2
27 22 1
27 25 3
28 3 4
28 4 4
28 5 3
28 10 1
28 11 2
28 12 1
28 14 1
28 16 3
28 21 4
28 23 4
28 25 1
28 26 4
29 0 3
29 1 2
29 2 1
29 3 1
29 5 3
29 8 3
29 9 4
29 10 1
29 11 2
29 12 2
29 14 2
29 15 1
29 19 1
29 21 2
29 22 2
29 23 4
29 24 1
29 27 1
30 0 4
30 4 4
30 8 1
30 10 1
30 13 1
30 14 4
30 17 1
30 18 1
30 19 3
30 21 4
30 23 4
30 24 2
30 26 1
30 27 3
30 28 2
31 1 4
31 2 2
31 3 2
31 4 1
31 7 3
31 8 1
31 12 1
31 13 2
31 14 1
31 16 4
31 17 3
31 19 4
31 20 4
31 21 2
31 23 3
31 28 4
31 30 4
32 0 4
32 1 2
32 3 3
32 6 2
32 9 1
32 11 1
32 12 2
32 13 1
32 14 1
32 18 4
32 19 1
32 21 1
32 25 1
32 26 4
32 27 1
32 28 2
32 29 3
32 31 2
33 2 4
33 3 1
33 4 1
33 10 3
33 11 4
33 12 2
33 14 4
33 15 4
33 17 2
33 20 1
33 23 1
33 27 1
33 28 4
33 30 4
34 1 3
34 2 1
34 3 1
34 4 1
34 5 1
34 6 4
34 7 2
34 9 3
34 10 4
34 15 1
34 16 1
34 17 2
34 21 1
34 22 1
34 25 2
34 26 4
34 27 4
34 28 1
35 5 4
35 9 4
35 10 3
35 12 1
35 13 4
35 14 4
35 15 2
35 23 1
35 24 3
35 25 3
35 26 2
35 29 1
35 30 2
35 32 2
35 33 2
35 34 3
36 1 1
36 2 3
36 3 2
36 4 3
36 7 2
36 9 1
36 10 4
36 11 3
36 13 3
36 15 1
36 16 3
36 19 1
36 21 3
36 24 2
36 25 4
36 26 2
36 27 1
36 31 3
36 33 4
36 35 4
37 1 1
37 2 2
37 3 2
37 4 3
37 6 4
37 7 4
37 10 4
37 12 3
37 13 2
37 14 2
37 18 2
37 19 1
37 20 2
37 21 3
37 23 3
37 25 2
37 27 4
37 28 3
37 32 4
37 33 4
38 0 2
38 1 2
38 5 1
38 7 1
38 10 3
38 13 4
38 14 4
38 15 3
38 17 3
38 20 3
38 22 2
38 25 3
38 26 4
38 28 3
38 30 1
38 31 4
38 32 3
38 36 2
38 37 3
39 0 2
39 1 1
39 3 4
39 4 3
39 6 1
39 7 3
39 8 2
39 11 4
39 15 1
39 21 2
39 24 1
39 25 4
39 29 1
39 30 4
39 31 2
39 33 3
39 34 1
39 35 1
39 36 1
39 37 1
39 38 2
40 0 4
40 2 3
40 4 3
40 5 4
40 6 2
40 7 4
40 9 1
40 10 1
40 12 1
40 14 1
40 19 4
40 20 2
40 21 4
40 22 1
40 25 4
40 28 3
40 29 2
40 31 1
40 33 2
40 35 3
40 36 1
40 38 2
40 39 1
41 3 4
41 4 3
41 5 1
41 6 1
41 8 4
41 10 2
41 12 3
41 13 4
41 14 3
41 15 3
41 19 4
41 20 4
41 21 1
41 22 4
41 23 2
41 25 3
41 27 4
41 34 3
41 36 2
41 37 3
41 39 2
41 40 2
42 1 1
42 2 4
42 3 4
42 6 4
42 7 1
42 9 1
42 11 4
42 19 2
42 25 2
42 26 2
42 27 4
42 33 3
42 34 4
42 37 2
42 39 1
43 1 1
43 2 3
43 5 4
43 7 1
43 13 4
43 15 2
43 16 4
43 17 4
43 20 4
43 22 3
43 30 2
43 33 2
43 35 3
43 39 1
43 41 3
44 0 2
44 1 2
44 3 3
44 6 3
44 8 2
44 10 2
44 12 1
44 13 3
44 15 2
44 18 3
44 22 2
44 23 2
44 26 2
44 31 4
44 33 1
44 35 4
44 36 2
44 38 1
44 40 2
44 41 4
45 0 1
45 3 4
45 4 4
45 6 1
45 8 2
45 9 1
45 11 4
45 12 1
45 13 2
45 14 2
45 15 1
45 16 4
45 17 3
45 18 1
45 23 4
45 24 1
45 25 4
45 27 3
45 31 3
45 37 2
45 42 1
46 0 2
46 4 3
46 8 4
46 9 4
46 10 3
46 12 1
46 14 4
46 20 1
46 21 3
46 22 2
46 23 4
46 24 1
46 26 4
46 31 4
46 34 4
46 41 2
46 42 3
46 45 2
47 0 1
47 1 1
47 2 1
47 6 1
47 9 1
47 10 1
47 14 2
47 15 2
47 18 2
47 19 4
47 20 2
47 21 1
47 22 2
47 23 1
47 24 1
47 25 3
47 26 3
47 29 1
47 37 1
47 40 3
47 43 3
47 44 1
48 1 3
48 2 2
48 5 1
48 6 2
48 10 2
48 11 2
48 12 4
48 14 4
48 18 3
48 19 1
48 27 3
48 28 3
48 33 3
48 34 3
48 41 3
48 42 3
48 44 4
48 45 4
48 46 2
49 0 1
49 3 4
49 8 3
49 12 3
49 13 2
49 14 2
49 15 1
49 18 3
49 21 3
49 26 4
49 27 4
49 28 3
49 31 2
49 33 4
49 34 4
49 35 1
49 37 1
49 38 4
49 40 1
49 41 3
49 43 1
50 0 3
50 3 2
50 5 3
50 6 3
50 7 4
50 8 1
50 14 4
50 17 1
50 18 1
50 19 3
50 20 3
50 22 3
50 23 1
50 24 2
50 26 3
50 27 2
50 28 2
50 29 4
50 30 4
50 33 2
50 34 1
50 39 1
50 41 4
50 45 1
50 49 3
51 3 1
51 7 1
51 8 4
51 13 2
51 18 4
51 23 4
51 25 3
51 28 4
51 29 3
51 30 2
51 31 2
51 32 4
51 33 4
51 34 3
51 35 3
51 39 4
51 40 2
51 43 3
51 44 3
51 50 3
52 2 2
52 3 3
52 5 3
52 6 4
52 7 1
52 9 3
52 11 1
52 12 4
52 13 3
52 15 1
52 17 1
52 19 2
52 20 1
52 21 4
52 23 4
52 24 2
52 25 1
52 28 1
52 29 2
52 30 4
52 31 1
52 32 3
52 39 1
52 40 3
52 41 1
52 44 1
52 45 2
52 47 3
53 0 1
53 1 4
53 2 2
53 3 1
53 4 2
53 6 3
53 10 2
53 11 3
53 12 1
53 15 1
53 16 2
53 18 1
53 24 4
53 25 4
53 26 3
53 29 4
53 30 4
53 31 1
53 32 3
53 37 4
53 39 1
53 40 2
53 41 2
53 42 1
53 45 1
53 49 3
53 51 3
53 52 2
54 0 1
54 2 3
54 3 3
54 8 2
54 9 2
54 10 1
54 12 1
54 13 4
54 16 4
54 18 1
54 19 1
54 20 4
54 24 2
54 25 1
54 27 3
54 31 4
54 33 1
54 37 4
54 42 3
54 44 1
54 45 3
54 48 4
54 52 1
55 0 3
55 1 1
55 2 4
55 7 2
55 12 4
55 13 4
55 16 2
55 21 1
55 22 2
55 24 4
55 25 4
55 27 2
55 29 3
55 31 2
55 33 2
55 34 4
55 36 2
55 37 2
55 40 1
55 43 1
55 44 3
55 46 2
55 51 1
55 52 2
55 53 1
55 54 1
56 0 4
56 1 1
56 2 1
56 3 4
56 10 3
56 12 1
56 14 3
56 16 2
56 17 4
56 18 1
56 19 1
56 20 4
56 22 2
56 23 2
56 24 3
56 27 3
56 28 2
56 29 2
56 30 2
56 32 4
56 33 2
56 34 2
56 36 1
56 38 3
56 39 4
56 45 3
56 48 3
56 49 2
56 50 2
56 51 2
56 52 4
56 54 2
57 1 3
57 2 2
57 4 4
57 5 4
57 6 1
57 7 3
57 8 4
57 10 3
57 11 4
57 14 1
57 17 2
57 19 3
57 21 4
57 25 3
57 26 4
57 27 2
57 28 4
57 30 2
57 32 3
57 35 3
57 36 1
57 37 3
57 40 2
57 43 3
57 44 1
57 45 2
57 46 4
57 49 3
57 52 2
57 54 4
58 4 1
58 7 1
58 10 1
58 14 2
58 25 4
58 33 1
58 34 4
58 35 2
58 36 4
58 37 1
58 38 1
58 41 3
58 42 1
58 43 1
58 45 2
58 48 2
58 51 4
58 52 2
58 56 3
58 57 3
59 1 3
59 2 3
59 3 1
59 4 3
59 5 4
59 6 2
59 11 4
59 12 1
59 13 1
59 14 4
59 15 4
59 17 2
59 18 4
59 20 1
59 23 2
59 24 3
59 28 4
59 29 1
59 32 2
59 34 2
59 36 4
59 37 3
59 38 3
59 39 3
59 40 2
59 42 2
59 43 1
59 44 2
59 47 1
59 49 1
59 50 3
59 53 3
59 54 4
60 2 1
60 3 3
60 4 2
60 11 1
60 12 1
60 13 1
60 14 1
60 15 4
60 17 1
60 18 4
60 20 1
60 22 1
60 23 2
60 25 4
60 28 4
60 30 3
60 31 2
60 35 4
60 36 4
60 37 3
60 38 4
60 40 3
60 41 2
60 42 4
60 51 2
60 52 1
60 53 2
60 56 2
60 59 2
61 1 1
61 2 2
61 3 1
61 6 2
61 7 1
61 10 1
61 11 4
61 13 1
61 14 3
61 19 4
61 20 4
61 21 2
61 22 4
61 29 2
61 30 3
61 31 1
61 34 4
61 37 2
61 38 2
61 40 4
61 41 4
61 43 3
61 44 2
61 45 4
61 46 1
61 48 3
61 49 1
61 52 1
61 53 3
61 55 2
61 57 3
61 58 1
61 59 2
61 60 4
62 0 1
62 2 2
62 5 3
62 6 4
62 7 2
62 12 3
62 14 1
62 19 1
62 20 1
62 25 4
62 27 1
62 29 3
62 31 3
62 33 2
62 37 2
62 39 2
62 40 1
62 42 4
62 43 2
62 45 3
62 48 4
62 50 4
62 54 4
63 1 3
63 2 1
63 3 2
63 5 3
63 7 3
63 11 3
63 12 4
63 22 3
63 23 2
63 25 1
63 26 2
63 32 3
63 34 4
63 35 2
63 36 4
63 38 2
63 40 2
63 43 1
63 44 2
63 49 4
63 50 3
63 51 3
63 53 1
63 54 2
63 56 2
63 58 4
63 59 2
63 62 3
64 0 2
64 1 1
64 6 3
64 7 3
64 8 1
64 9 1
64 12 3
64 15 1
64 16 4
64 17 2
64 18 3
64 19 2
64 20 1
64 25 3
64 26 2
64 30 3
64 31 1
64 32 4
64 33 1
64 38 2
64 40 2
64 41 1
64 42 1
64 44 3
64 47 2
64 49 1
64 51 2
64 55 2
64 58 2
64 62 3
64 63 1
65 2 3
65 4 1
65 9 3
65 10 1
65 12 4
65 13 4
65 14 1
65 17 3
65 18 2
65 21 2
65 23 3
65 24 3
65 27 4
65 29 4
65 30 3
65 31 1
65 34 3
65 35 1
65 38 3
65 39 2
65 40 4
65 41 3
65 42 1
65 44 1
65 52 4
65 55 4
65 57 4
65 59 4
65 60 4
65 61 2
65 62 3
65 63 2
66 0 4
66 2 3
66 5 3
66 6 1
66 7 4
66 10 3
66 11 4
66 13 3
66 16 4
66 17 4
66 18 3
66 21 1
66 24 4
66 25 4
66 26 1
66 27 3
66 29 4
66 31 4
66 33 4
66 36 4
66 38 1
66 44 4
66 45 3
66 46 4
66 48 2
66 49 4
66 50 1
66 51 4
66 53 3
66 57 4
66 58 1
66 59 2
66 60 4
66 61 1
66 63 4
66 64 2
66 65 3
67 2 2
67 3 3
67 4 4
67 6 1
67 7 4
67 9 2
67 10 3
67 11 1
67 13 1
67 15 4
67 16 1
67 17 4
67 19 2
67 20 1
67 22 1
67 24 3
67 26 4
67 28 3
67 30 1
67 33 2
67 37 1
67 38 3
67 39 4
67 40 4
67 44 1
67 45 2
67 46 4
67 48 2
67 49 4
67 51 4
67 52 1
67 53 2
67 54 2
67 55 4
67 59 2
67 60 1
68 1 2
68 2 4
68 4 4
68 7 2
68 8 4
68 9 1
68 11 4
68 12 4
68 13 2
68 15 1
68 17 1
68 18 4
68 22 1
68 27 4
68 28 1
68 30 2
68 32 4
68 34 2
68 36 1
68 44 3
68 47 3
68 48 2
68 50 2
68 52 2
68 55 3
68 57 2
68 59 3
68 61 1
68 62 2
68 63 1
68 64 1
68 65 3
68 66 4
68 67 1
69 0 4
69 1 1
69 2 1
69 4 4
69 8 4
69 11 4
69 12 1
69 19 3
69 25 3
69 26 4
69 27 3
69 28 4
69 29 2
69 30 1
69 31 4
69 32 3
69 40 3
69 41 2
69 42 3
69 48 3
69 49 4
69 55 2
69 59 3
69 61 2
69 64 1
69 65 3
69 66 1
69 67 4
